p cnf 241 815
c p weight -95 1 0
c p weight 95 -1 0
c p weight 99 6.12323399573676603586882014729198302312846062338790031898128063403419218957424163818359375E-17 0
c p weight -99 1 0
c p weight 100 1 0
c p weight -100 1 0
c p weight -97 1 0
c p weight 97 -1 0
c p weight -101 1 0
c p weight 101 -1 0
c p weight -103 1 0
c p weight 103 -1 0
c p weight -106 1 0
c p weight 106 -1 0
c p weight -109 1 0
c p weight 109 -1 0
c p weight -112 1 0
c p weight 112 -1 0
c p weight -115 1 0
c p weight 115 -1 0
c p weight -118 1 0
c p weight 118 -1 0
c p weight -121 1 0
c p weight 121 -1 0
c p weight -124 1 0
c p weight 124 -1 0
c p weight -127 1 0
c p weight 127 -1 0
c p weight -130 1 0
c p weight 130 -1 0
c p weight -133 1 0
c p weight 133 -1 0
c p weight -136 1 0
c p weight 136 -1 0
c p weight -139 1 0
c p weight 139 -1 0
c p weight -142 1 0
c p weight 142 -1 0
c p weight -145 1 0
c p weight 145 -1 0
c p weight -148 1 0
c p weight 148 -1 0
c p weight -151 1 0
c p weight 151 -1 0
c p weight -154 1 0
c p weight 154 -1 0
c p weight -157 1 0
c p weight 157 -1 0
c p weight -160 1 0
c p weight 160 -1 0
c p weight -163 1 0
c p weight 163 -1 0
c p weight -166 1 0
c p weight 166 -1 0
c p weight -169 1 0
c p weight 169 -1 0
c p weight -172 1 0
c p weight 172 -1 0
c p weight -175 1 0
c p weight 175 -1 0
c p weight -178 1 0
c p weight 178 -1 0
c p weight -181 1 0
c p weight 181 -1 0
c p weight -184 1 0
c p weight 184 -1 0
c p weight -187 1 0
c p weight 187 -1 0
c p weight -190 1 0
c p weight 190 -1 0
c p weight -193 1 0
c p weight 193 -1 0
c p weight -196 1 0
c p weight 196 -1 0
c p weight -199 1 0
c p weight 199 -1 0
c p weight -202 1 0
c p weight 202 -1 0
c p weight -205 1 0
c p weight 205 -1 0
c p weight -208 1 0
c p weight 208 -1 0
c p weight -211 1 0
c p weight 211 -1 0
c p weight -214 1 0
c p weight 214 -1 0
c p weight -217 1 0
c p weight 217 -1 0
c p weight -220 1 0
c p weight 220 -1 0
c p weight -223 1 0
c p weight 223 -1 0
c p weight -226 1 0
c p weight 226 -1 0
c p weight -229 1 0
c p weight 229 -1 0
c p weight -232 1 0
c p weight 232 -1 0
c p weight -235 1 0
c p weight 235 -1 0
c p weight -238 1 0
c p weight 238 -1 0
c p weight 241 0.5 0
c p weight -241 1 0
241 0
-93 0
-91 0
-89 0
-87 0
-85 0
-83 0
-81 0
-79 0
-77 0
-75 0
-73 0
-71 0
-69 0
-67 0
-65 0
-63 0
-61 0
-59 0
-57 0
-55 0
-53 0
-51 0
-49 0
-47 0
-45 0
-43 0
-41 0
-39 0
-37 0
-35 0
-33 0
-31 0
-29 0
-27 0
-25 0
-23 0
-21 0
-19 0
-17 0
-15 0
-13 0
-11 0
-9 0
-7 0
-5 0
-3 0
-1 0
-95 93 0
-95 94 0
95 -93 -94 0
96 93 -94 0
96 -93 94 0
-96 93 94 0
-96 -93 -94 0
-97 98 0
-97 96 0
-97 -93 0
97 -98 93 -96 0
98 -93 96 0
-98 93 96 0
-99 96 0
98 -99 -93 0
-98 -99 93 0
98 99 93 -96 0
-98 99 -93 -96 0
-100 96 0
98 -100 93 0
-98 -100 -93 0
98 100 -93 -96 0
-98 100 93 -96 0
-101 98 0
-101 96 0
101 -98 -96 0
102 98 -96 0
102 -98 96 0
-102 98 96 0
-102 -98 -96 0
-103 98 0
-103 92 0
-103 91 -102 0
-103 -91 102 0
103 -98 91 102 -92 0
103 -98 -91 -102 -92 0
105 98 -91 0
105 -98 91 0
-105 98 91 0
-105 -98 -91 0
104 102 -92 0
104 -102 92 0
-104 102 92 0
-104 -102 -92 0
-106 105 0
-106 90 0
-106 89 -92 0
-106 -89 92 0
106 -105 89 92 -90 0
106 -105 -89 -92 -90 0
108 105 -89 0
108 -105 89 0
-108 105 89 0
-108 -105 -89 0
107 92 -90 0
107 -92 90 0
-107 92 90 0
-107 -92 -90 0
-109 108 0
-109 88 0
-109 87 -90 0
-109 -87 90 0
109 -108 87 90 -88 0
109 -108 -87 -90 -88 0
111 108 -87 0
111 -108 87 0
-111 108 87 0
-111 -108 -87 0
110 90 -88 0
110 -90 88 0
-110 90 88 0
-110 -90 -88 0
-112 111 0
-112 86 0
-112 85 -88 0
-112 -85 88 0
112 -111 85 88 -86 0
112 -111 -85 -88 -86 0
114 111 -85 0
114 -111 85 0
-114 111 85 0
-114 -111 -85 0
113 88 -86 0
113 -88 86 0
-113 88 86 0
-113 -88 -86 0
-115 114 0
-115 84 0
-115 83 -86 0
-115 -83 86 0
115 -114 83 86 -84 0
115 -114 -83 -86 -84 0
117 114 -83 0
117 -114 83 0
-117 114 83 0
-117 -114 -83 0
116 86 -84 0
116 -86 84 0
-116 86 84 0
-116 -86 -84 0
-118 117 0
-118 82 0
-118 81 -84 0
-118 -81 84 0
118 -117 81 84 -82 0
118 -117 -81 -84 -82 0
120 117 -81 0
120 -117 81 0
-120 117 81 0
-120 -117 -81 0
119 84 -82 0
119 -84 82 0
-119 84 82 0
-119 -84 -82 0
-121 120 0
-121 80 0
-121 79 -82 0
-121 -79 82 0
121 -120 79 82 -80 0
121 -120 -79 -82 -80 0
123 120 -79 0
123 -120 79 0
-123 120 79 0
-123 -120 -79 0
122 82 -80 0
122 -82 80 0
-122 82 80 0
-122 -82 -80 0
-124 123 0
-124 78 0
-124 77 -80 0
-124 -77 80 0
124 -123 77 80 -78 0
124 -123 -77 -80 -78 0
126 123 -77 0
126 -123 77 0
-126 123 77 0
-126 -123 -77 0
125 80 -78 0
125 -80 78 0
-125 80 78 0
-125 -80 -78 0
-127 126 0
-127 76 0
-127 75 -78 0
-127 -75 78 0
127 -126 75 78 -76 0
127 -126 -75 -78 -76 0
129 126 -75 0
129 -126 75 0
-129 126 75 0
-129 -126 -75 0
128 78 -76 0
128 -78 76 0
-128 78 76 0
-128 -78 -76 0
-130 129 0
-130 74 0
-130 73 -76 0
-130 -73 76 0
130 -129 73 76 -74 0
130 -129 -73 -76 -74 0
132 129 -73 0
132 -129 73 0
-132 129 73 0
-132 -129 -73 0
131 76 -74 0
131 -76 74 0
-131 76 74 0
-131 -76 -74 0
-133 132 0
-133 72 0
-133 71 -74 0
-133 -71 74 0
133 -132 71 74 -72 0
133 -132 -71 -74 -72 0
135 132 -71 0
135 -132 71 0
-135 132 71 0
-135 -132 -71 0
134 74 -72 0
134 -74 72 0
-134 74 72 0
-134 -74 -72 0
-136 135 0
-136 70 0
-136 69 -72 0
-136 -69 72 0
136 -135 69 72 -70 0
136 -135 -69 -72 -70 0
138 135 -69 0
138 -135 69 0
-138 135 69 0
-138 -135 -69 0
137 72 -70 0
137 -72 70 0
-137 72 70 0
-137 -72 -70 0
-139 138 0
-139 68 0
-139 67 -70 0
-139 -67 70 0
139 -138 67 70 -68 0
139 -138 -67 -70 -68 0
141 138 -67 0
141 -138 67 0
-141 138 67 0
-141 -138 -67 0
140 70 -68 0
140 -70 68 0
-140 70 68 0
-140 -70 -68 0
-142 141 0
-142 66 0
-142 65 -68 0
-142 -65 68 0
142 -141 65 68 -66 0
142 -141 -65 -68 -66 0
144 141 -65 0
144 -141 65 0
-144 141 65 0
-144 -141 -65 0
143 68 -66 0
143 -68 66 0
-143 68 66 0
-143 -68 -66 0
-145 144 0
-145 64 0
-145 63 -66 0
-145 -63 66 0
145 -144 63 66 -64 0
145 -144 -63 -66 -64 0
147 144 -63 0
147 -144 63 0
-147 144 63 0
-147 -144 -63 0
146 66 -64 0
146 -66 64 0
-146 66 64 0
-146 -66 -64 0
-148 147 0
-148 62 0
-148 61 -64 0
-148 -61 64 0
148 -147 61 64 -62 0
148 -147 -61 -64 -62 0
150 147 -61 0
150 -147 61 0
-150 147 61 0
-150 -147 -61 0
149 64 -62 0
149 -64 62 0
-149 64 62 0
-149 -64 -62 0
-151 150 0
-151 60 0
-151 59 -62 0
-151 -59 62 0
151 -150 59 62 -60 0
151 -150 -59 -62 -60 0
153 150 -59 0
153 -150 59 0
-153 150 59 0
-153 -150 -59 0
152 62 -60 0
152 -62 60 0
-152 62 60 0
-152 -62 -60 0
-154 153 0
-154 58 0
-154 57 -60 0
-154 -57 60 0
154 -153 57 60 -58 0
154 -153 -57 -60 -58 0
156 153 -57 0
156 -153 57 0
-156 153 57 0
-156 -153 -57 0
155 60 -58 0
155 -60 58 0
-155 60 58 0
-155 -60 -58 0
-157 156 0
-157 56 0
-157 55 -58 0
-157 -55 58 0
157 -156 55 58 -56 0
157 -156 -55 -58 -56 0
159 156 -55 0
159 -156 55 0
-159 156 55 0
-159 -156 -55 0
158 58 -56 0
158 -58 56 0
-158 58 56 0
-158 -58 -56 0
-160 159 0
-160 54 0
-160 53 -56 0
-160 -53 56 0
160 -159 53 56 -54 0
160 -159 -53 -56 -54 0
162 159 -53 0
162 -159 53 0
-162 159 53 0
-162 -159 -53 0
161 56 -54 0
161 -56 54 0
-161 56 54 0
-161 -56 -54 0
-163 162 0
-163 52 0
-163 51 -54 0
-163 -51 54 0
163 -162 51 54 -52 0
163 -162 -51 -54 -52 0
165 162 -51 0
165 -162 51 0
-165 162 51 0
-165 -162 -51 0
164 54 -52 0
164 -54 52 0
-164 54 52 0
-164 -54 -52 0
-166 165 0
-166 50 0
-166 49 -52 0
-166 -49 52 0
166 -165 49 52 -50 0
166 -165 -49 -52 -50 0
168 165 -49 0
168 -165 49 0
-168 165 49 0
-168 -165 -49 0
167 52 -50 0
167 -52 50 0
-167 52 50 0
-167 -52 -50 0
-169 168 0
-169 48 0
-169 47 -50 0
-169 -47 50 0
169 -168 47 50 -48 0
169 -168 -47 -50 -48 0
171 168 -47 0
171 -168 47 0
-171 168 47 0
-171 -168 -47 0
170 50 -48 0
170 -50 48 0
-170 50 48 0
-170 -50 -48 0
-172 171 0
-172 46 0
-172 45 -48 0
-172 -45 48 0
172 -171 45 48 -46 0
172 -171 -45 -48 -46 0
174 171 -45 0
174 -171 45 0
-174 171 45 0
-174 -171 -45 0
173 48 -46 0
173 -48 46 0
-173 48 46 0
-173 -48 -46 0
-175 174 0
-175 44 0
-175 43 -46 0
-175 -43 46 0
175 -174 43 46 -44 0
175 -174 -43 -46 -44 0
177 174 -43 0
177 -174 43 0
-177 174 43 0
-177 -174 -43 0
176 46 -44 0
176 -46 44 0
-176 46 44 0
-176 -46 -44 0
-178 177 0
-178 42 0
-178 41 -44 0
-178 -41 44 0
178 -177 41 44 -42 0
178 -177 -41 -44 -42 0
180 177 -41 0
180 -177 41 0
-180 177 41 0
-180 -177 -41 0
179 44 -42 0
179 -44 42 0
-179 44 42 0
-179 -44 -42 0
-181 180 0
-181 40 0
-181 39 -42 0
-181 -39 42 0
181 -180 39 42 -40 0
181 -180 -39 -42 -40 0
183 180 -39 0
183 -180 39 0
-183 180 39 0
-183 -180 -39 0
182 42 -40 0
182 -42 40 0
-182 42 40 0
-182 -42 -40 0
-184 183 0
-184 38 0
-184 37 -40 0
-184 -37 40 0
184 -183 37 40 -38 0
184 -183 -37 -40 -38 0
186 183 -37 0
186 -183 37 0
-186 183 37 0
-186 -183 -37 0
185 40 -38 0
185 -40 38 0
-185 40 38 0
-185 -40 -38 0
-187 186 0
-187 36 0
-187 35 -38 0
-187 -35 38 0
187 -186 35 38 -36 0
187 -186 -35 -38 -36 0
189 186 -35 0
189 -186 35 0
-189 186 35 0
-189 -186 -35 0
188 38 -36 0
188 -38 36 0
-188 38 36 0
-188 -38 -36 0
-190 189 0
-190 34 0
-190 33 -36 0
-190 -33 36 0
190 -189 33 36 -34 0
190 -189 -33 -36 -34 0
192 189 -33 0
192 -189 33 0
-192 189 33 0
-192 -189 -33 0
191 36 -34 0
191 -36 34 0
-191 36 34 0
-191 -36 -34 0
-193 192 0
-193 32 0
-193 31 -34 0
-193 -31 34 0
193 -192 31 34 -32 0
193 -192 -31 -34 -32 0
195 192 -31 0
195 -192 31 0
-195 192 31 0
-195 -192 -31 0
194 34 -32 0
194 -34 32 0
-194 34 32 0
-194 -34 -32 0
-196 195 0
-196 30 0
-196 29 -32 0
-196 -29 32 0
196 -195 29 32 -30 0
196 -195 -29 -32 -30 0
198 195 -29 0
198 -195 29 0
-198 195 29 0
-198 -195 -29 0
197 32 -30 0
197 -32 30 0
-197 32 30 0
-197 -32 -30 0
-199 198 0
-199 28 0
-199 27 -30 0
-199 -27 30 0
199 -198 27 30 -28 0
199 -198 -27 -30 -28 0
201 198 -27 0
201 -198 27 0
-201 198 27 0
-201 -198 -27 0
200 30 -28 0
200 -30 28 0
-200 30 28 0
-200 -30 -28 0
-202 201 0
-202 26 0
-202 25 -28 0
-202 -25 28 0
202 -201 25 28 -26 0
202 -201 -25 -28 -26 0
204 201 -25 0
204 -201 25 0
-204 201 25 0
-204 -201 -25 0
203 28 -26 0
203 -28 26 0
-203 28 26 0
-203 -28 -26 0
-205 204 0
-205 24 0
-205 23 -26 0
-205 -23 26 0
205 -204 23 26 -24 0
205 -204 -23 -26 -24 0
207 204 -23 0
207 -204 23 0
-207 204 23 0
-207 -204 -23 0
206 26 -24 0
206 -26 24 0
-206 26 24 0
-206 -26 -24 0
-208 207 0
-208 22 0
-208 21 -24 0
-208 -21 24 0
208 -207 21 24 -22 0
208 -207 -21 -24 -22 0
210 207 -21 0
210 -207 21 0
-210 207 21 0
-210 -207 -21 0
209 24 -22 0
209 -24 22 0
-209 24 22 0
-209 -24 -22 0
-211 210 0
-211 20 0
-211 19 -22 0
-211 -19 22 0
211 -210 19 22 -20 0
211 -210 -19 -22 -20 0
213 210 -19 0
213 -210 19 0
-213 210 19 0
-213 -210 -19 0
212 22 -20 0
212 -22 20 0
-212 22 20 0
-212 -22 -20 0
-214 213 0
-214 18 0
-214 17 -20 0
-214 -17 20 0
214 -213 17 20 -18 0
214 -213 -17 -20 -18 0
216 213 -17 0
216 -213 17 0
-216 213 17 0
-216 -213 -17 0
215 20 -18 0
215 -20 18 0
-215 20 18 0
-215 -20 -18 0
-217 216 0
-217 16 0
-217 15 -18 0
-217 -15 18 0
217 -216 15 18 -16 0
217 -216 -15 -18 -16 0
219 216 -15 0
219 -216 15 0
-219 216 15 0
-219 -216 -15 0
218 18 -16 0
218 -18 16 0
-218 18 16 0
-218 -18 -16 0
-220 219 0
-220 14 0
-220 13 -16 0
-220 -13 16 0
220 -219 13 16 -14 0
220 -219 -13 -16 -14 0
222 219 -13 0
222 -219 13 0
-222 219 13 0
-222 -219 -13 0
221 16 -14 0
221 -16 14 0
-221 16 14 0
-221 -16 -14 0
-223 222 0
-223 12 0
-223 11 -14 0
-223 -11 14 0
223 -222 11 14 -12 0
223 -222 -11 -14 -12 0
225 222 -11 0
225 -222 11 0
-225 222 11 0
-225 -222 -11 0
224 14 -12 0
224 -14 12 0
-224 14 12 0
-224 -14 -12 0
-226 225 0
-226 10 0
-226 9 -12 0
-226 -9 12 0
226 -225 9 12 -10 0
226 -225 -9 -12 -10 0
228 225 -9 0
228 -225 9 0
-228 225 9 0
-228 -225 -9 0
227 12 -10 0
227 -12 10 0
-227 12 10 0
-227 -12 -10 0
-229 228 0
-229 8 0
-229 7 -10 0
-229 -7 10 0
229 -228 7 10 -8 0
229 -228 -7 -10 -8 0
231 228 -7 0
231 -228 7 0
-231 228 7 0
-231 -228 -7 0
230 10 -8 0
230 -10 8 0
-230 10 8 0
-230 -10 -8 0
-232 231 0
-232 6 0
-232 5 -8 0
-232 -5 8 0
232 -231 5 8 -6 0
232 -231 -5 -8 -6 0
234 231 -5 0
234 -231 5 0
-234 231 5 0
-234 -231 -5 0
233 8 -6 0
233 -8 6 0
-233 8 6 0
-233 -8 -6 0
-235 234 0
-235 4 0
-235 3 -6 0
-235 -3 6 0
235 -234 3 6 -4 0
235 -234 -3 -6 -4 0
237 234 -3 0
237 -234 3 0
-237 234 3 0
-237 -234 -3 0
236 6 -4 0
236 -6 4 0
-236 6 4 0
-236 -6 -4 0
-238 237 0
-238 2 0
-238 1 -4 0
-238 -1 4 0
238 -237 1 4 -2 0
238 -237 -1 -4 -2 0
240 237 -1 0
240 -237 1 0
-240 237 1 0
-240 -237 -1 0
239 4 -2 0
239 -4 2 0
-239 4 2 0
-239 -4 -2 0
-240 0
-237 0
-239 0
-234 0
-236 0
-231 0
-233 0
-228 0
-230 0
-225 0
-227 0
-222 0
-224 0
-219 0
-221 0
-216 0
-218 0
-213 0
-215 0
-210 0
-212 0
-207 0
-209 0
-204 0
-206 0
-201 0
-203 0
-198 0
-200 0
-195 0
-197 0
-192 0
-194 0
-189 0
-191 0
-186 0
-188 0
-183 0
-185 0
-180 0
-182 0
-177 0
-179 0
-174 0
-176 0
-171 0
-173 0
-168 0
-170 0
-165 0
-167 0
-162 0
-164 0
-159 0
-161 0
-156 0
-158 0
-153 0
-155 0
-150 0
-152 0
-147 0
-149 0
-144 0
-146 0
-141 0
-143 0
-138 0
-140 0
-135 0
-137 0
-132 0
-134 0
-129 0
-131 0
-126 0
-128 0
-123 0
-125 0
-120 0
-122 0
-117 0
-119 0
-114 0
-116 0
-111 0
-113 0
-108 0
-110 0
-105 0
-107 0
-98 0
-104 0
